11
11
7 3 10 2 6 9 0 5 4
5 4 9 8 3 1 2 10 0 6
4 10 1 2 8 9 7 3 6
10 7 8 4 1 3 0 2 9 6 5
3 8 4 5 1 9 0 2 10 6
8 1 3 7 2 9 5 10 0
9 0 5 7 1 3 4 10 2
4 8 9 0 2 7 6 5 1
4 9 8 1 10 5 2 3 0 6
10 6 1 5 8 9 4
5 8
